p cnf 11 34 
c Factors encoded in variables 1-6 and 7-11
c Target number: 1769
c Factors: 61 x 29
4 3 -8 0
-4 3 8 0
-4 3 2 -8 0
11 0
-4 -3 -8 0
3 -2 -8 0
-3 2 -9 -8 0
4 -3 8 0
-2 -9 -8 0
4 -3 9 0
-4 -9 -8 0
5 0
-4 3 2 0
7 0
4 -3 -2 9 0
-4 -3 -2 0
-4 3 9 8 0
-4 9 -8 0
4 9 8 0
10 0
3 9 0
2 -8 0
-4 -2 -9 8 0
1 0
3 -9 0
-4 -3 2 9 8 0
-2 -9 0
-2 8 0
3 8 0
6 0
-4 9 8 0
-3 9 0
4 3 0
4 2 -9 8 0
